(set-info :smt-lib-version 2.6)
(set-logic UF)
(set-info :source |Benchmarks from the paper: "Extending Sledgehammer with SMT Solvers" by Jasmin Blanchette, Sascha Bohme, and Lawrence C. Paulson, CADE 2011.  Translated to SMT2 by Andrew Reynolds and Morgan Deters.|)
(set-info :category "industrial")
(set-info :status unsat)
(declare-sort S1 0)
(declare-sort S2 0)
(declare-sort S3 0)
(declare-sort S4 0)
(declare-sort S5 0)
(declare-sort S6 0)
(declare-sort S7 0)
(declare-sort S8 0)
(declare-sort S9 0)
(declare-sort S10 0)
(declare-sort S11 0)
(declare-sort S12 0)
(declare-fun f1 () S1)
(declare-fun f2 () S1)
(declare-fun f3 (S3 S2) S1)
(declare-fun f4 (S4 S2) S3)
(declare-fun f5 () S4)
(declare-fun f6 (S5 S5) S1)
(declare-fun f7 () S5)
(declare-fun f8 (S6 S5) S5)
(declare-fun f9 (S7) S6)
(declare-fun f10 (S4 S8 S4) S7)
(declare-fun f11 (S9 S10) S8)
(declare-fun f12 () S9)
(declare-fun f13 () S10)
(declare-fun f14 (S8) S4)
(declare-fun f15 () S5)
(declare-fun f16 (S11 S12) S8)
(declare-fun f17 () S11)
(declare-fun f18 (S10) S12)
(assert (not (= f1 f2)))
(assert (forall ((?v0 S2) (?v1 S2)) (= (= (f3 (f4 f5 ?v0) ?v1) f1) (= ?v0 ?v1))))
(assert (let ((?v_0 (f11 f12 f13))) (not (= (f6 f7 (f8 (f9 (f10 f5 ?v_0 (f14 ?v_0))) f15)) f1))))
(assert (let ((?v_0 (f11 f12 f13)) (?v_1 (f16 f17 (f18 f13)))) (= (f6 (f8 (f9 (f10 f5 ?v_0 (f14 ?v_0))) f7) (f8 (f9 (f10 f5 ?v_1 (f14 ?v_1))) f15)) f1)))
(assert (forall ((?v0 S5) (?v1 S4) (?v2 S8) (?v3 S4) (?v4 S4)) (=> (= (f6 ?v0 (f8 (f9 (f10 ?v1 ?v2 ?v3)) f15)) f1) (=> (forall ((?v5 S2) (?v6 S2)) (=> (= (f3 (f4 ?v3 ?v5) ?v6) f1) (= (f3 (f4 ?v4 ?v5) ?v6) f1))) (= (f6 ?v0 (f8 (f9 (f10 ?v1 ?v2 ?v4)) f15)) f1)))))
(assert (forall ((?v0 S10) (?v1 S2) (?v2 S2)) (=> (= (f3 (f4 (f14 (f16 f17 (f18 ?v0))) ?v1) ?v2) f1) (= (f3 (f4 (f14 (f11 f12 ?v0)) ?v1) ?v2) f1))))
(assert (forall ((?v0 S4) (?v1 S10) (?v2 S4) (?v3 S5)) (let ((?v_0 (f9 (f10 ?v0 (f11 f12 ?v1) ?v2)))) (=> (= (f6 (f8 ?v_0 ?v3) (f8 (f9 (f10 ?v0 (f16 f17 (f18 ?v1)) ?v2)) f15)) f1) (= (f6 ?v3 (f8 ?v_0 f15)) f1)))))
(check-sat)
(exit)
